\ This file has been generated by Portfolio Optimizer
\ ENCODING=ISO-8859-1
\Problem name: Portfolio Optimization
Minimize
 obj: [ 54 portfolio_weight_0^2 + 54 portfolio_weight_1^2 + 96 portfolio_weight_2^2 + 95 portfolio_weight_3^2 + 55 portfolio_weight_4^2 + 72 portfolio_weight_5^2 + 52 portfolio_weight_6^2 + 59 portfolio_weight_7^2 + 96 portfolio_weight_8^2 + 75 portfolio_weight_9^2 + 74 portfolio_weight_10^2 + 92 portfolio_weight_11^2 + 93 portfolio_weight_12^2 + 67 portfolio_weight_13^2 + 87 portfolio_weight_14^2 + 95 portfolio_weight_15^2 + 70 portfolio_weight_16^2 + 90 portfolio_weight_17^2 + 72 portfolio_weight_18^2 + 99 portfolio_weight_19^2 + 68 portfolio_weight_20^2 + 52 portfolio_weight_21^2 + 82 portfolio_weight_22^2 + 68 portfolio_weight_23^2 + 92 portfolio_weight_24^2 + 60 portfolio_weight_25^2 + 59 portfolio_weight_26^2 + 78 portfolio_weight_27^2 + 76 portfolio_weight_28^2 + 86 portfolio_weight_29^2 + 59 portfolio_weight_30^2 ]/2
Subject To
 budget: portfolio_weight_0 + portfolio_weight_1 + portfolio_weight_2 + portfolio_weight_3 + portfolio_weight_4 + portfolio_weight_5 + portfolio_weight_6 + portfolio_weight_7 + portfolio_weight_8 + portfolio_weight_9 + portfolio_weight_10 + portfolio_weight_11 + portfolio_weight_12 + portfolio_weight_13 + portfolio_weight_14 + portfolio_weight_15 + portfolio_weight_16 + portfolio_weight_17 + portfolio_weight_18 + portfolio_weight_19 + portfolio_weight_20 + portfolio_weight_21 + portfolio_weight_22 + portfolio_weight_23 + portfolio_weight_24 + portfolio_weight_25 + portfolio_weight_26 + portfolio_weight_27 + portfolio_weight_28 + portfolio_weight_29 + portfolio_weight_30 = 1
 sector_Consumer: portfolio_weight_8 + portfolio_weight_13 + portfolio_weight_14 + portfolio_weight_21 + portfolio_weight_24 <= 0.3
 sector_Financials: portfolio_weight_11 + portfolio_weight_16 <= 0.3
 sector_Healthcare: portfolio_weight_0 + portfolio_weight_1 + portfolio_weight_3 + portfolio_weight_5 + portfolio_weight_18 + portfolio_weight_19 + portfolio_weight_22
 constraint_4: <= 0.3
 sector_Technology: portfolio_weight_2 + portfolio_weight_4 + portfolio_weight_6 + portfolio_weight_12 + portfolio_weight_17 + portfolio_weight_25 + portfolio_weight_26 + portfolio_weight_27 + portfolio_weight_28 + portfolio_weight_29 + portfolio_weight_30 <= 0.3
 sector_Industrials: portfolio_weight_9 + portfolio_weight_20 <= 0.3
 sector_Energy: portfolio_weight_10 + portfolio_weight_15 <= 0.3
Bounds
 w[0] <= 1
 w[1] <= 1
 w[2] <= 1
 w[3] <= 1
 w[4] <= 1
 w[5] <= 1
 w[6] <= 1
 w[7] <= 1
 w[8] <= 1
 w[9] <= 1
 w[10] <= 1
 w[11] <= 1
 w[12] <= 1
 w[13] <= 1
 w[14] <= 1
 w[15] <= 1
 w[16] <= 1
 w[17] <= 1
 w[18] <= 1
 w[19] <= 1
 w[20] <= 1
 w[21] <= 1
 w[22] <= 1
 w[23] <= 1
 w[24] <= 1
 w[25] <= 1
 w[26] <= 1
 w[27] <= 1
 w[28] <= 1
 w[29] <= 1
 w[30] <= 1
End